NAME : LKH/problem_files/LocalTSPInstance1.407439.tour
COMMENT : Length = 407439
COMMENT : Found by LKH [Keld Helsgaun] Fri Jul  2 10:45:32 2021
TYPE : TOUR
DIMENSION : 156
TOUR_SECTION
1
6
2
3
9
10
7
34
8
33
31
32
59
60
90
91
88
89
119
120
151
152
154
153
122
121
123
155
126
156
125
95
124
94
96
97
127
128
130
129
99
98
68
67
65
66
63
93
64
92
61
36
62
35
38
37
40
39
12
11
4
5
13
14
41
42
69
70
100
101
131
132
134
136
138
133
135
137
107
105
103
102
104
106
76
74
72
71
73
75
48
46
44
43
45
47
20
18
16
15
17
19
21
22
49
50
77
78
108
109
139
140
142
141
111
110
112
113
143
144
146
148
145
115
117
114
116
147
150
149
118
87
85
83
86
84
81
82
80
79
52
51
24
23
26
53
54
56
58
55
57
29
27
30
28
25
-1
EOF
